423
3241
7446
9901
5704
8465
514
3673
2972
7750
7926
5640
5685
9737
7896
2094
1802
7473
3533
1442
9108
6574
3660
1936
7313
9432
5405
3944
563
3037
6288
1316
4093
7001
9634
7442
2742
7792
5887
7744
833
730
3038
3940
8254
4341
2329
1974
4327
6905
